c n orig vars 62
p cnf 64 144
1 2 -63 0
3 4 -63 0
5 6 -63 0
7 8 -63 0
9 10 -63 0
11 12 -63 0
13 14 -63 0
15 16 -63 0
17 18 -63 0
19 20 -63 0
21 28 35 42 49 56 -64 0
22 29 36 43 50 57 -64 0
23 30 37 44 51 58 -64 0
24 31 38 45 52 59 -64 0
25 32 39 46 53 60 -64 0
26 33 40 47 54 61 -64 0
27 34 41 48 55 62 -64 0
-21 -22 -64 0
-21 -23 -64 0
-21 -24 -64 0
-21 -25 -64 0
-21 -26 -64 0
-21 -27 -64 0
-22 -23 -64 0
-22 -24 -64 0
-22 -25 -64 0
-22 -26 -64 0
-22 -27 -64 0
-23 -24 -64 0
-23 -25 -64 0
-23 -26 -64 0
-23 -27 -64 0
-24 -25 -64 0
-24 -26 -64 0
-24 -27 -64 0
-25 -26 -64 0
-25 -27 -64 0
-26 -27 -64 0
-28 -29 -64 0
-28 -30 -64 0
-28 -31 -64 0
-28 -32 -64 0
-28 -33 -64 0
-28 -34 -64 0
-29 -30 -64 0
-29 -31 -64 0
-29 -32 -64 0
-29 -33 -64 0
-29 -34 -64 0
-30 -31 -64 0
-30 -32 -64 0
-30 -33 -64 0
-30 -34 -64 0
-31 -32 -64 0
-31 -33 -64 0
-31 -34 -64 0
-32 -33 -64 0
-32 -34 -64 0
-33 -34 -64 0
-35 -36 -64 0
-35 -37 -64 0
-35 -38 -64 0
-35 -39 -64 0
-35 -40 -64 0
-35 -41 -64 0
-36 -37 -64 0
-36 -38 -64 0
-36 -39 -64 0
-36 -40 -64 0
-36 -41 -64 0
-37 -38 -64 0
-37 -39 -64 0
-37 -40 -64 0
-37 -41 -64 0
-38 -39 -64 0
-38 -40 -64 0
-38 -41 -64 0
-39 -40 -64 0
-39 -41 -64 0
-40 -41 -64 0
-42 -43 -64 0
-42 -44 -64 0
-42 -45 -64 0
-42 -46 -64 0
-42 -47 -64 0
-42 -48 -64 0
-43 -44 -64 0
-43 -45 -64 0
-43 -46 -64 0
-43 -47 -64 0
-43 -48 -64 0
-44 -45 -64 0
-44 -46 -64 0
-44 -47 -64 0
-44 -48 -64 0
-45 -46 -64 0
-45 -47 -64 0
-45 -48 -64 0
-46 -47 -64 0
-46 -48 -64 0
-47 -48 -64 0
-49 -50 -64 0
-49 -51 -64 0
-49 -52 -64 0
-49 -53 -64 0
-49 -54 -64 0
-49 -55 -64 0
-50 -51 -64 0
-50 -52 -64 0
-50 -53 -64 0
-50 -54 -64 0
-50 -55 -64 0
-51 -52 -64 0
-51 -53 -64 0
-51 -54 -64 0
-51 -55 -64 0
-52 -53 -64 0
-52 -54 -64 0
-52 -55 -64 0
-53 -54 -64 0
-53 -55 -64 0
-54 -55 -64 0
-56 -57 -64 0
-56 -58 -64 0
-56 -59 -64 0
-56 -60 -64 0
-56 -61 -64 0
-56 -62 -64 0
-57 -58 -64 0
-57 -59 -64 0
-57 -60 -64 0
-57 -61 -64 0
-57 -62 -64 0
-58 -59 -64 0
-58 -60 -64 0
-58 -61 -64 0
-58 -62 -64 0
-59 -60 -64 0
-59 -61 -64 0
-59 -62 -64 0
-60 -61 -64 0
-60 -62 -64 0
-61 -62 -64 0
63 64 0
